NAME /Users/henri/Research/solvers/instances/idol-instances/robust/collection/spp_dkp_Lefebvre_et_al_2026/shortest_path_6_7/uncertainty_sets/discrete_knapsack
ROWS
 N  OBJ
 L  primal_lower
COLUMNS
    MARKER    'MARKER'                 'INTORG'
    y[0,1]     OBJ        0
    y[0,1]     primal_lower -1.19
    y[0,2]     OBJ        0
    y[0,2]     primal_lower -0.98
    y[0,3]     OBJ        0
    y[0,3]     primal_lower -3.67
    y[0,4]     OBJ        0
    y[0,4]     primal_lower -3.53
    y[0,5]     OBJ        0
    y[0,5]     primal_lower -2.7
    y[1,0]     OBJ        0
    y[1,0]     primal_lower -2.24
    y[1,3]     OBJ        0
    y[1,3]     primal_lower -2.17
    y[2,0]     OBJ        0
    y[2,0]     primal_lower -0.83
    y[2,3]     OBJ        0
    y[2,3]     primal_lower -3.05
    y[2,4]     OBJ        0
    y[2,4]     primal_lower -3.55
    y[2,5]     OBJ        0
    y[2,5]     primal_lower -2.86
    y[3,0]     OBJ        0
    y[3,0]     primal_lower -1.97
    y[3,1]     OBJ        0
    y[3,1]     primal_lower -1.75
    y[3,2]     OBJ        0
    y[3,2]     primal_lower -3.18
    y[3,4]     OBJ        0
    y[3,4]     primal_lower -3.34
    y[3,5]     OBJ        0
    y[3,5]     primal_lower -0.91
    y[4,0]     OBJ        0
    y[4,0]     primal_lower -3.81
    y[4,2]     OBJ        0
    y[4,2]     primal_lower -0.23
    y[4,3]     OBJ        0
    y[4,3]     primal_lower -1.15
    y[4,5]     OBJ        0
    y[4,5]     primal_lower -1.24
    y[5,0]     OBJ        0
    y[5,0]     primal_lower -2.78
    y[5,2]     OBJ        0
    y[5,2]     primal_lower -2.8
    y[5,3]     OBJ        0
    y[5,3]     primal_lower -3.73
    y[5,4]     OBJ        0
    y[5,4]     primal_lower -2.4
    u[0,1]     OBJ        0
    u[0,1]     primal_lower 69
    u[0,2]     OBJ        0
    u[0,2]     primal_lower 2
    u[0,3]     OBJ        0
    u[0,3]     primal_lower 66
    u[0,4]     OBJ        0
    u[0,4]     primal_lower 18
    u[0,5]     OBJ        0
    u[0,5]     primal_lower 4
    u[1,0]     OBJ        0
    u[1,0]     primal_lower 68
    u[1,3]     OBJ        0
    u[1,3]     primal_lower 25
    u[2,0]     OBJ        0
    u[2,0]     primal_lower 60
    u[2,3]     OBJ        0
    u[2,3]     primal_lower 26
    u[2,4]     OBJ        0
    u[2,4]     primal_lower 9
    u[2,5]     OBJ        0
    u[2,5]     primal_lower 95
    u[3,0]     OBJ        0
    u[3,0]     primal_lower 93
    u[3,1]     OBJ        0
    u[3,1]     primal_lower 63
    u[3,2]     OBJ        0
    u[3,2]     primal_lower 57
    u[3,4]     OBJ        0
    u[3,4]     primal_lower 21
    u[3,5]     OBJ        0
    u[3,5]     primal_lower 3
    u[4,0]     OBJ        0
    u[4,0]     primal_lower 15
    u[4,2]     OBJ        0
    u[4,2]     primal_lower 26
    u[4,3]     OBJ        0
    u[4,3]     primal_lower 60
    u[4,5]     OBJ        0
    u[4,5]     primal_lower 54
    u[5,0]     OBJ        0
    u[5,0]     primal_lower 73
    u[5,2]     OBJ        0
    u[5,2]     primal_lower 27
    u[5,3]     OBJ        0
    u[5,3]     primal_lower 33
    u[5,4]     OBJ        0
    u[5,4]     primal_lower 47
    MARKER    'MARKER'                 'INTEND'
RHS
    RHS       primal_lower 95
BOUNDS
 LI BND       y[0,1]     0
 UI BND       y[0,1]     1
 LI BND       y[0,2]     0
 UI BND       y[0,2]     1
 LI BND       y[0,3]     0
 UI BND       y[0,3]     1
 LI BND       y[0,4]     0
 UI BND       y[0,4]     1
 LI BND       y[0,5]     0
 UI BND       y[0,5]     1
 LI BND       y[1,0]     0
 UI BND       y[1,0]     1
 LI BND       y[1,3]     0
 UI BND       y[1,3]     1
 LI BND       y[2,0]     0
 UI BND       y[2,0]     1
 LI BND       y[2,3]     0
 UI BND       y[2,3]     1
 LI BND       y[2,4]     0
 UI BND       y[2,4]     1
 LI BND       y[2,5]     0
 UI BND       y[2,5]     1
 LI BND       y[3,0]     0
 UI BND       y[3,0]     1
 LI BND       y[3,1]     0
 UI BND       y[3,1]     1
 LI BND       y[3,2]     0
 UI BND       y[3,2]     1
 LI BND       y[3,4]     0
 UI BND       y[3,4]     1
 LI BND       y[3,5]     0
 UI BND       y[3,5]     1
 LI BND       y[4,0]     0
 UI BND       y[4,0]     1
 LI BND       y[4,2]     0
 UI BND       y[4,2]     1
 LI BND       y[4,3]     0
 UI BND       y[4,3]     1
 LI BND       y[4,5]     0
 UI BND       y[4,5]     1
 LI BND       y[5,0]     0
 UI BND       y[5,0]     1
 LI BND       y[5,2]     0
 UI BND       y[5,2]     1
 LI BND       y[5,3]     0
 UI BND       y[5,3]     1
 LI BND       y[5,4]     0
 UI BND       y[5,4]     1
 LI BND       u[0,1]     0
 UI BND       u[0,1]     1
 LI BND       u[0,2]     0
 UI BND       u[0,2]     1
 LI BND       u[0,3]     0
 UI BND       u[0,3]     1
 LI BND       u[0,4]     0
 UI BND       u[0,4]     1
 LI BND       u[0,5]     0
 UI BND       u[0,5]     1
 LI BND       u[1,0]     0
 UI BND       u[1,0]     1
 LI BND       u[1,3]     0
 UI BND       u[1,3]     1
 LI BND       u[2,0]     0
 UI BND       u[2,0]     1
 LI BND       u[2,3]     0
 UI BND       u[2,3]     1
 LI BND       u[2,4]     0
 UI BND       u[2,4]     1
 LI BND       u[2,5]     0
 UI BND       u[2,5]     1
 LI BND       u[3,0]     0
 UI BND       u[3,0]     1
 LI BND       u[3,1]     0
 UI BND       u[3,1]     1
 LI BND       u[3,2]     0
 UI BND       u[3,2]     1
 LI BND       u[3,4]     0
 UI BND       u[3,4]     1
 LI BND       u[3,5]     0
 UI BND       u[3,5]     1
 LI BND       u[4,0]     0
 UI BND       u[4,0]     1
 LI BND       u[4,2]     0
 UI BND       u[4,2]     1
 LI BND       u[4,3]     0
 UI BND       u[4,3]     1
 LI BND       u[4,5]     0
 UI BND       u[4,5]     1
 LI BND       u[5,0]     0
 UI BND       u[5,0]     1
 LI BND       u[5,2]     0
 UI BND       u[5,2]     1
 LI BND       u[5,3]     0
 UI BND       u[5,3]     1
 LI BND       u[5,4]     0
 UI BND       u[5,4]     1
ENDATA
